Running HiGHS 1.11.0 (git hash: 364c83a51): Copyright (c) 2025 HiGHS under MIT licence terms
Set option log_file to "HiGHS.log"
Set option solution_file to "/tmp/20250624-5677-ohtpru.lp.sol"
MIP  20250624-5677-ohtpru has 2 rows; 3 cols; 5 nonzeros; 3 integer variables (3 binary)
Coefficient ranges:
  Matrix [1e+00, 1e+00]
  Cost   [1e+00, 3e+00]
  Bound  [1e+00, 1e+00]
  RHS    [1e+00, 2e+00]
Presolving model
2 rows, 3 cols, 5 nonzeros  0s
1 rows, 2 cols, 2 nonzeros  0s
0 rows, 0 cols, 0 nonzeros  0s
Presolve: Optimal

Src: B => Branching; C => Central rounding; F => Feasibility pump; J => Feasibility jump;
     H => Heuristic; L => Sub-MIP; P => Empty MIP; R => Randomized rounding; Z => ZI Round;
     I => Shifting; S => Solve LP; T => Evaluate node; U => Unbounded; X => User solution;
     z => Trivial zero; l => Trivial lower; u => Trivial upper; p => Trivial point

        Nodes      |    B&B Tree     |            Objective Bounds              |  Dynamic Constraints |       Work      
Src  Proc. InQueue |  Leaves   Expl. | BestBound       BestSol              Gap |   Cuts   InLp Confl. | LpIters     Time

         0       0         0   0.00%   4               4                  0.00%        0      0      0         0     0.0s

Solving report
  Model             20250624-5677-ohtpru
  Status            Optimal
  Primal bound      4
  Dual bound        4
  Gap               0% (tolerance: 0.01%)
  P-D integral      0
  Solution status   feasible
                    4 (objective)
                    0 (bound viol.)
                    0 (int. viol.)
                    0 (row viol.)
  Timing            0.00 (total)
                    0.00 (presolve)
                    0.00 (solve)
                    0.00 (postsolve)
  Max sub-MIP depth 0
  Nodes             0
  Repair LPs        0 (0 feasible; 0 iterations)
  LP iterations     0 (total)
                    0 (strong br.)
                    0 (separation)
                    0 (heuristics)
Writing the solution to /tmp/20250624-5677-ohtpru.lp.sol
Running HiGHS 1.11.0 (git hash: 364c83a51): Copyright (c) 2025 HiGHS under MIT licence terms
Set option log_file to "HiGHS.log"
Set option solution_file to "/tmp/debug.sol"
LP   debug has 2 rows; 3 cols; 5 nonzeros
Coefficient ranges:
  Matrix [1e+00, 1e+00]
  Cost   [1e+00, 3e+00]
  Bound  [0e+00, 0e+00]
  RHS    [1e+00, 2e+00]
Presolving model
2 rows, 3 cols, 5 nonzeros  0s
0 rows, 1 cols, 0 nonzeros  0s
0 rows, 0 cols, 0 nonzeros  0s
Presolve : Reductions: rows 0(-2); columns 0(-3); elements 0(-5) - Reduced to empty
Solving the original LP from the solution after postsolve
Model name          : debug
Model status        : Optimal
Objective value     :  4.0000000000e+00
P-D objective error :  0.0000000000e+00
HiGHS run time      :          0.00
Writing the solution to /tmp/debug.sol
Running HiGHS 1.11.0 (git hash: 364c83a51): Copyright (c) 2025 HiGHS under MIT licence terms
Set option log_file to "HiGHS.log"
Set option solution_file to "/tmp/20250624-5685-fty4ru.lp.sol"
LP   20250624-5685-fty4ru has 2 rows; 3 cols; 5 nonzeros
Coefficient ranges:
  Matrix [1e+00, 1e+00]
  Cost   [1e+00, 3e+00]
  Bound  [0e+00, 0e+00]
  RHS    [1e+00, 2e+00]
Presolving model
2 rows, 3 cols, 5 nonzeros  0s
0 rows, 1 cols, 0 nonzeros  0s
0 rows, 0 cols, 0 nonzeros  0s
Presolve : Reductions: rows 0(-2); columns 0(-3); elements 0(-5) - Reduced to empty
Solving the original LP from the solution after postsolve
Model name          : 20250624-5685-fty4ru
Model status        : Optimal
Objective value     :  4.0000000000e+00
P-D objective error :  0.0000000000e+00
HiGHS run time      :          0.00
Writing the solution to /tmp/20250624-5685-fty4ru.lp.sol
Running HiGHS 1.11.0 (git hash: 364c83a51): Copyright (c) 2025 HiGHS under MIT licence terms
Set option log_file to "HiGHS.log"
Set option solution_file to "/tmp/debug.sol"
LP   debug has 2 rows; 3 cols; 5 nonzeros
Coefficient ranges:
  Matrix [1e+00, 1e+00]
  Cost   [1e+00, 3e+00]
  Bound  [0e+00, 0e+00]
  RHS    [1e+00, 2e+00]
Presolving model
2 rows, 3 cols, 5 nonzeros  0s
0 rows, 1 cols, 0 nonzeros  0s
0 rows, 0 cols, 0 nonzeros  0s
Presolve : Reductions: rows 0(-2); columns 0(-3); elements 0(-5) - Reduced to empty
Solving the original LP from the solution after postsolve
Model name          : debug
Model status        : Optimal
Objective value     :  4.0000000000e+00
P-D objective error :  0.0000000000e+00
HiGHS run time      :          0.00
Writing the solution to /tmp/debug.sol
Running HiGHS 1.11.0 (git hash: 364c83a51): Copyright (c) 2025 HiGHS under MIT licence terms
Set option log_file to "HiGHS.log"
Set option solution_file to "/tmp/20250624-5703-fbex79.lp.sol"
LP   20250624-5703-fbex79 has 2 rows; 3 cols; 5 nonzeros
Coefficient ranges:
  Matrix [1e+00, 1e+00]
  Cost   [1e+00, 3e+00]
  Bound  [0e+00, 0e+00]
  RHS    [1e+00, 2e+00]
Presolving model
2 rows, 3 cols, 5 nonzeros  0s
0 rows, 1 cols, 0 nonzeros  0s
0 rows, 0 cols, 0 nonzeros  0s
Presolve : Reductions: rows 0(-2); columns 0(-3); elements 0(-5) - Reduced to empty
Solving the original LP from the solution after postsolve
Model name          : 20250624-5703-fbex79
Model status        : Optimal
Objective value     :  4.0000000000e+00
P-D objective error :  0.0000000000e+00
HiGHS run time      :          0.00
Writing the solution to /tmp/20250624-5703-fbex79.lp.sol
Running HiGHS 1.11.0 (git hash: 364c83a51): Copyright (c) 2025 HiGHS under MIT licence terms
Set option log_file to "HiGHS.log"
Set option solution_file to "/tmp/20250624-5715-oukmal.lp.sol"
MIP  20250624-5715-oukmal has 2 rows; 3 cols; 5 nonzeros; 3 integer variables (3 binary)
Coefficient ranges:
  Matrix [1e+00, 1e+00]
  Cost   [1e+00, 3e+00]
  Bound  [1e+00, 1e+00]
  RHS    [1e+00, 2e+00]
Presolving model
2 rows, 3 cols, 5 nonzeros  0s
1 rows, 2 cols, 2 nonzeros  0s
0 rows, 0 cols, 0 nonzeros  0s
Presolve: Optimal

Src: B => Branching; C => Central rounding; F => Feasibility pump; J => Feasibility jump;
     H => Heuristic; L => Sub-MIP; P => Empty MIP; R => Randomized rounding; Z => ZI Round;
     I => Shifting; S => Solve LP; T => Evaluate node; U => Unbounded; X => User solution;
     z => Trivial zero; l => Trivial lower; u => Trivial upper; p => Trivial point

        Nodes      |    B&B Tree     |            Objective Bounds              |  Dynamic Constraints |       Work      
Src  Proc. InQueue |  Leaves   Expl. | BestBound       BestSol              Gap |   Cuts   InLp Confl. | LpIters     Time

         0       0         0   0.00%   4               4                  0.00%        0      0      0         0     0.0s

Solving report
  Model             20250624-5715-oukmal
  Status            Optimal
  Primal bound      4
  Dual bound        4
  Gap               0% (tolerance: 0.01%)
  P-D integral      0
  Solution status   feasible
                    4 (objective)
                    0 (bound viol.)
                    0 (int. viol.)
                    0 (row viol.)
  Timing            0.00 (total)
                    0.00 (presolve)
                    0.00 (solve)
                    0.00 (postsolve)
  Max sub-MIP depth 0
  Nodes             0
  Repair LPs        0 (0 feasible; 0 iterations)
  LP iterations     0 (total)
                    0 (strong br.)
                    0 (separation)
                    0 (heuristics)
Writing the solution to /tmp/20250624-5715-oukmal.lp.sol
Running HiGHS 1.11.0 (git hash: 364c83a51): Copyright (c) 2025 HiGHS under MIT licence terms
Set option solver to "simplex"
Set option log_file to "HiGHS.log"
Set option solution_file to "/tmp/20250624-5789-b4mrd2.lp.sol"
LP   20250624-5789-b4mrd2 has 2 rows; 3 cols; 5 nonzeros
Coefficient ranges:
  Matrix [1e+00, 1e+00]
  Cost   [1e+00, 3e+00]
  Bound  [0e+00, 0e+00]
  RHS    [1e+00, 2e+00]
Presolving model
2 rows, 3 cols, 5 nonzeros  0s
0 rows, 1 cols, 0 nonzeros  0s
0 rows, 0 cols, 0 nonzeros  0s
Presolve : Reductions: rows 0(-2); columns 0(-3); elements 0(-5) - Reduced to empty
Solving the original LP from the solution after postsolve
Model name          : 20250624-5789-b4mrd2
Model status        : Optimal
Objective value     :  4.0000000000e+00
P-D objective error :  0.0000000000e+00
HiGHS run time      :          0.00
Writing the solution to /tmp/20250624-5789-b4mrd2.lp.sol
